(set-logic QF_NRA_ODE)
(declare-fun x () Real [-100, 100])
(declare-fun v () Real [-100, 100])
(declare-fun a () Real [-100, 100])
(declare-fun lt () Real [0.000000, 0.051])
(declare-fun gt () Real [0.000000, 3])
(declare-fun state_x_0 () Real [-100, 100] )
(declare-fun state_v_0 () Real [-100, 100] )
(declare-fun next_a_0 () Real [-100, 100] )
(declare-fun x_0_0 () Real [-100, 100])
(declare-fun x_0_t () Real [-100, 100])
(declare-fun v_0_0 () Real [-100, 100])
(declare-fun v_0_t () Real [-100, 100])
(declare-fun a_0_0 () Real [-100, 100])
(declare-fun a_0_t () Real [-100, 100])
(declare-fun lt_0_0 () Real [0.000000, 0.051])
(declare-fun lt_0_t () Real [0.000000, 0.051])
(declare-fun gt_0_0 () Real [0.000000, 3])
(declare-fun gt_0_t () Real [0.000000, 3])
(declare-fun time_0 () Real [0.049, 0.051])
(declare-fun mode_0 () Real [1.000000, 1.000000])
(declare-fun Noise__-1 () Real [0, 0])
(declare-fun state_x_1 () Real [-100, 100] )
(declare-fun state_v_1 () Real [-100, 100] )
(declare-fun next_a_1 () Real [-100, 100] )
(declare-fun x_1_0 () Real [-100, 100])
(declare-fun x_1_t () Real [-100, 100])
(declare-fun v_1_0 () Real [-100, 100])
(declare-fun v_1_t () Real [-100, 100])
(declare-fun a_1_0 () Real [-100, 100])
(declare-fun a_1_t () Real [-100, 100])
(declare-fun lt_1_0 () Real [0.000000, 0.051])
(declare-fun lt_1_t () Real [0.000000, 0.051])
(declare-fun gt_1_0 () Real [0.000000, 3])
(declare-fun gt_1_t () Real [0.000000, 3])
(declare-fun time_1 () Real [0.049, 0.051])
(declare-fun mode_1 () Real [1.000000, 1.000000])
(declare-fun state_x_2 () Real [-100, 100] )
(declare-fun state_v_2 () Real [-100, 100] )
(declare-fun next_a_2 () Real [-100, 100] )
(declare-fun x_2_0 () Real [-100, 100])
(declare-fun x_2_t () Real [-100, 100])
(declare-fun v_2_0 () Real [-100, 100])
(declare-fun v_2_t () Real [-100, 100])
(declare-fun a_2_0 () Real [-100, 100])
(declare-fun a_2_t () Real [-100, 100])
(declare-fun lt_2_0 () Real [0.000000, 0.051])
(declare-fun lt_2_t () Real [0.000000, 0.051])
(declare-fun gt_2_0 () Real [0.000000, 3])
(declare-fun gt_2_t () Real [0.000000, 3])
(declare-fun time_2 () Real [0.049, 0.051])
(declare-fun mode_2 () Real [1.000000, 1.000000])
(declare-fun state_x_3 () Real [-100, 100] )
(declare-fun state_v_3 () Real [-100, 100] )
(declare-fun next_a_3 () Real [-100, 100] )
(declare-fun x_3_0 () Real [-100, 100])
(declare-fun x_3_t () Real [-100, 100])
(declare-fun v_3_0 () Real [-100, 100])
(declare-fun v_3_t () Real [-100, 100])
(declare-fun a_3_0 () Real [-100, 100])
(declare-fun a_3_t () Real [-100, 100])
(declare-fun lt_3_0 () Real [0.000000, 0.051])
(declare-fun lt_3_t () Real [0.000000, 0.051])
(declare-fun gt_3_0 () Real [0.000000, 3])
(declare-fun gt_3_t () Real [0.000000, 3])
(declare-fun time_3 () Real [0.049, 0.051])
(declare-fun mode_3 () Real [1.000000, 1.000000])
(declare-fun state_x_4 () Real [-100, 100] )
(declare-fun state_v_4 () Real [-100, 100] )
(declare-fun next_a_4 () Real [-100, 100] )
(declare-fun x_4_0 () Real [-100, 100])
(declare-fun x_4_t () Real [-100, 100])
(declare-fun v_4_0 () Real [-100, 100])
(declare-fun v_4_t () Real [-100, 100])
(declare-fun a_4_0 () Real [-100, 100])
(declare-fun a_4_t () Real [-100, 100])
(declare-fun lt_4_0 () Real [0.000000, 0.051])
(declare-fun lt_4_t () Real [0.000000, 0.051])
(declare-fun gt_4_0 () Real [0.000000, 3])
(declare-fun gt_4_t () Real [0.000000, 3])
(declare-fun time_4 () Real [0.049, 0.051])
(declare-fun mode_4 () Real [1.000000, 1.000000])
(declare-fun state_x_5 () Real [-100, 100] )
(declare-fun state_v_5 () Real [-100, 100] )
(declare-fun next_a_5 () Real [-100, 100] )
(declare-fun x_5_0 () Real [-100, 100])
(declare-fun x_5_t () Real [-100, 100])
(declare-fun v_5_0 () Real [-100, 100])
(declare-fun v_5_t () Real [-100, 100])
(declare-fun a_5_0 () Real [-100, 100])
(declare-fun a_5_t () Real [-100, 100])
(declare-fun lt_5_0 () Real [0.000000, 0.051])
(declare-fun lt_5_t () Real [0.000000, 0.051])
(declare-fun gt_5_0 () Real [0.000000, 3])
(declare-fun gt_5_t () Real [0.000000, 3])
(declare-fun time_5 () Real [0.049, 0.051])
(declare-fun mode_5 () Real [1.000000, 1.000000])
(declare-fun state_x_6 () Real [-100, 100] )
(declare-fun state_v_6 () Real [-100, 100] )
(declare-fun next_a_6 () Real [-100, 100] )
(declare-fun x_6_0 () Real [-100, 100])
(declare-fun x_6_t () Real [-100, 100])
(declare-fun v_6_0 () Real [-100, 100])
(declare-fun v_6_t () Real [-100, 100])
(declare-fun a_6_0 () Real [-100, 100])
(declare-fun a_6_t () Real [-100, 100])
(declare-fun lt_6_0 () Real [0.000000, 0.051])
(declare-fun lt_6_t () Real [0.000000, 0.051])
(declare-fun gt_6_0 () Real [0.000000, 3])
(declare-fun gt_6_t () Real [0.000000, 3])
(declare-fun time_6 () Real [0.049, 0.051])
(declare-fun mode_6 () Real [1.000000, 1.000000])
(declare-fun state_x_7 () Real [-100, 100] )
(declare-fun state_v_7 () Real [-100, 100] )
(declare-fun next_a_7 () Real [-100, 100] )
(declare-fun x_7_0 () Real [-100, 100])
(declare-fun x_7_t () Real [-100, 100])
(declare-fun v_7_0 () Real [-100, 100])
(declare-fun v_7_t () Real [-100, 100])
(declare-fun a_7_0 () Real [-100, 100])
(declare-fun a_7_t () Real [-100, 100])
(declare-fun lt_7_0 () Real [0.000000, 0.051])
(declare-fun lt_7_t () Real [0.000000, 0.051])
(declare-fun gt_7_0 () Real [0.000000, 3])
(declare-fun gt_7_t () Real [0.000000, 3])
(declare-fun time_7 () Real [0.049, 0.051])
(declare-fun mode_7 () Real [1.000000, 1.000000])
(declare-fun state_x_8 () Real [-100, 100] )
(declare-fun state_v_8 () Real [-100, 100] )
(declare-fun next_a_8 () Real [-100, 100] )
(declare-fun x_8_0 () Real [-100, 100])
(declare-fun x_8_t () Real [-100, 100])
(declare-fun v_8_0 () Real [-100, 100])
(declare-fun v_8_t () Real [-100, 100])
(declare-fun a_8_0 () Real [-100, 100])
(declare-fun a_8_t () Real [-100, 100])
(declare-fun lt_8_0 () Real [0.000000, 0.051])
(declare-fun lt_8_t () Real [0.000000, 0.051])
(declare-fun gt_8_0 () Real [0.000000, 3])
(declare-fun gt_8_t () Real [0.000000, 3])
(declare-fun time_8 () Real [0.049, 0.051])
(declare-fun mode_8 () Real [1.000000, 1.000000])
(declare-fun state_x_9 () Real [-100, 100] )
(declare-fun state_v_9 () Real [-100, 100] )
(declare-fun next_a_9 () Real [-100, 100] )
(declare-fun x_9_0 () Real [-100, 100])
(declare-fun x_9_t () Real [-100, 100])
(declare-fun v_9_0 () Real [-100, 100])
(declare-fun v_9_t () Real [-100, 100])
(declare-fun a_9_0 () Real [-100, 100])
(declare-fun a_9_t () Real [-100, 100])
(declare-fun lt_9_0 () Real [0.000000, 0.051])
(declare-fun lt_9_t () Real [0.000000, 0.051])
(declare-fun gt_9_0 () Real [0.000000, 3])
(declare-fun gt_9_t () Real [0.000000, 3])
(declare-fun time_9 () Real [0.049, 0.051])
(declare-fun mode_9 () Real [1.000000, 1.000000])
(declare-fun state_x_10 () Real [-100, 100] )
(declare-fun state_v_10 () Real [-100, 100] )
(declare-fun next_a_10 () Real [-100, 100] )
(declare-fun x_10_0 () Real [-100, 100])
(declare-fun x_10_t () Real [-100, 100])
(declare-fun v_10_0 () Real [-100, 100])
(declare-fun v_10_t () Real [-100, 100])
(declare-fun a_10_0 () Real [-100, 100])
(declare-fun a_10_t () Real [-100, 100])
(declare-fun lt_10_0 () Real [0.000000, 0.051])
(declare-fun lt_10_t () Real [0.000000, 0.051])
(declare-fun gt_10_0 () Real [0.000000, 3])
(declare-fun gt_10_t () Real [0.000000, 3])
(declare-fun time_10 () Real [0.049, 0.051])
(declare-fun mode_10 () Real [1.000000, 1.000000])
(declare-fun state_x_11 () Real [-100, 100] )
(declare-fun state_v_11 () Real [-100, 100] )
(declare-fun next_a_11 () Real [-100, 100] )
(declare-fun x_11_0 () Real [-100, 100])
(declare-fun x_11_t () Real [-100, 100])
(declare-fun v_11_0 () Real [-100, 100])
(declare-fun v_11_t () Real [-100, 100])
(declare-fun a_11_0 () Real [-100, 100])
(declare-fun a_11_t () Real [-100, 100])
(declare-fun lt_11_0 () Real [0.000000, 0.051])
(declare-fun lt_11_t () Real [0.000000, 0.051])
(declare-fun gt_11_0 () Real [0.000000, 3])
(declare-fun gt_11_t () Real [0.000000, 3])
(declare-fun time_11 () Real [0.049, 0.051])
(declare-fun mode_11 () Real [1.000000, 1.000000])
(declare-fun state_x_12 () Real [-100, 100] )
(declare-fun state_v_12 () Real [-100, 100] )
(declare-fun next_a_12 () Real [-100, 100] )
(declare-fun x_12_0 () Real [-100, 100])
(declare-fun x_12_t () Real [-100, 100])
(declare-fun v_12_0 () Real [-100, 100])
(declare-fun v_12_t () Real [-100, 100])
(declare-fun a_12_0 () Real [-100, 100])
(declare-fun a_12_t () Real [-100, 100])
(declare-fun lt_12_0 () Real [0.000000, 0.051])
(declare-fun lt_12_t () Real [0.000000, 0.051])
(declare-fun gt_12_0 () Real [0.000000, 3])
(declare-fun gt_12_t () Real [0.000000, 3])
(declare-fun time_12 () Real [0.049, 0.051])
(declare-fun mode_12 () Real [1.000000, 1.000000])
(declare-fun state_x_13 () Real [-100, 100] )
(declare-fun state_v_13 () Real [-100, 100] )
(declare-fun next_a_13 () Real [-100, 100] )
(declare-fun x_13_0 () Real [-100, 100])
(declare-fun x_13_t () Real [-100, 100])
(declare-fun v_13_0 () Real [-100, 100])
(declare-fun v_13_t () Real [-100, 100])
(declare-fun a_13_0 () Real [-100, 100])
(declare-fun a_13_t () Real [-100, 100])
(declare-fun lt_13_0 () Real [0.000000, 0.051])
(declare-fun lt_13_t () Real [0.000000, 0.051])
(declare-fun gt_13_0 () Real [0.000000, 3])
(declare-fun gt_13_t () Real [0.000000, 3])
(declare-fun time_13 () Real [0.049, 0.051])
(declare-fun mode_13 () Real [1.000000, 1.000000])
(declare-fun state_x_14 () Real [-100, 100] )
(declare-fun state_v_14 () Real [-100, 100] )
(declare-fun next_a_14 () Real [-100, 100] )
(declare-fun x_14_0 () Real [-100, 100])
(declare-fun x_14_t () Real [-100, 100])
(declare-fun v_14_0 () Real [-100, 100])
(declare-fun v_14_t () Real [-100, 100])
(declare-fun a_14_0 () Real [-100, 100])
(declare-fun a_14_t () Real [-100, 100])
(declare-fun lt_14_0 () Real [0.000000, 0.051])
(declare-fun lt_14_t () Real [0.000000, 0.051])
(declare-fun gt_14_0 () Real [0.000000, 3])
(declare-fun gt_14_t () Real [0.000000, 3])
(declare-fun time_14 () Real [0.049, 0.051])
(declare-fun mode_14 () Real [1.000000, 1.000000])
(declare-fun state_x_15 () Real [-100, 100] )
(declare-fun state_v_15 () Real [-100, 100] )
(declare-fun next_a_15 () Real [-100, 100] )
(declare-fun x_15_0 () Real [-100, 100])
(declare-fun x_15_t () Real [-100, 100])
(declare-fun v_15_0 () Real [-100, 100])
(declare-fun v_15_t () Real [-100, 100])
(declare-fun a_15_0 () Real [-100, 100])
(declare-fun a_15_t () Real [-100, 100])
(declare-fun lt_15_0 () Real [0.000000, 0.051])
(declare-fun lt_15_t () Real [0.000000, 0.051])
(declare-fun gt_15_0 () Real [0.000000, 3])
(declare-fun gt_15_t () Real [0.000000, 3])
(declare-fun time_15 () Real [0.000000, 0.051])
(declare-fun mode_15 () Real [1.000000, 1.000000])
(define-ode flow_1 ((= d/dt[gt] 1) (= d/dt[lt] 1) (= d/dt[x]  v) (= d/dt[v]  a) (= d/dt[a] 0)))
(assert (and (= lt_0_0 0) (= gt_0_0 0) (= a_0_0 0 )(= v_0_0 0 )(= x_0_0 0 )(= mode_0 1)  
 (= lt_0_t (+ lt_0_0 (* 1 0.05))) (= gt_0_t (+ gt_0_0 (* 1 0.05))) (= a_0_t (+ a_0_0 (* 0 0.05))) 
 (= [gt_0_t lt_0_t x_0_t v_0_t a_0_t ] (integral 0. time_0 [gt_0_0 lt_0_0 x_0_0 v_0_0 a_0_0 ] flow_1))  
 (= mode_1 1) (= lt_0_t 0.05) (= gt_1_0 gt_0_t) (= lt_1_0 0)  
 (= x_1_0 x_0_t)(= v_1_0 v_0_t) 
 (= state_x_0 x_0_t ) (= state_v_0 v_0_t )  
 (= next_a_1 (- (* (- 1 state_x_0 ) 10 ) (* state_v_0 3 ) ) ) 
  
 (= next_a_1 a_1_0 )  
 (= lt_1_t (+ lt_1_0 (* 1 time_1 ))) (= gt_1_t (+ gt_1_0 (* 1 time_1 ))) (= a_1_t (+ a_1_0 (* 0 time_1 ))) 
 (= [gt_1_t lt_1_t x_1_t v_1_t a_1_t ] (integral 0. time_1 [gt_1_0 lt_1_0 x_1_0 v_1_0 a_1_0 ] flow_1))  
 (<= lt_1_t 0.051) (<= lt_1_0 0.051) (= mode_2 1)  
 (= mode_2 1) (<= lt_1_t 0.051) (= gt_2_0 gt_1_t) (= lt_2_0 0)  
 (= x_2_0 x_1_t)(= v_2_0 v_1_t) 
 (= state_x_1 x_1_t ) (= state_v_1 v_1_t )  
 (= next_a_2 (- (* (- 1 state_x_1 ) 10 ) (* state_v_1 3 ) ) ) 
  
 (= next_a_2 a_2_0 )  
 (= lt_2_t (+ lt_2_0 (* 1 time_2 ))) (= gt_2_t (+ gt_2_0 (* 1 time_2 ))) (= a_2_t (+ a_2_0 (* 0 time_2 ))) 
 (= [gt_2_t lt_2_t x_2_t v_2_t a_2_t ] (integral 0. time_2 [gt_2_0 lt_2_0 x_2_0 v_2_0 a_2_0 ] flow_1))  
 (<= lt_2_t 0.051) (<= lt_2_0 0.051) (= mode_3 1)  
 (= mode_3 1) (<= lt_2_t 0.051) (= gt_3_0 gt_2_t) (= lt_3_0 0)  
 (= x_3_0 x_2_t)(= v_3_0 v_2_t) 
 (= state_x_2 x_2_t ) (= state_v_2 v_2_t )  
 (= next_a_3 (- (* (- 1 state_x_2 ) 10 ) (* state_v_2 3 ) ) ) 
  
 (= next_a_3 a_3_0 )  
 (= lt_3_t (+ lt_3_0 (* 1 time_3 ))) (= gt_3_t (+ gt_3_0 (* 1 time_3 ))) (= a_3_t (+ a_3_0 (* 0 time_3 ))) 
 (= [gt_3_t lt_3_t x_3_t v_3_t a_3_t ] (integral 0. time_3 [gt_3_0 lt_3_0 x_3_0 v_3_0 a_3_0 ] flow_1))  
 (<= lt_3_t 0.051) (<= lt_3_0 0.051) (= mode_4 1)  
 (= mode_4 1) (<= lt_3_t 0.051) (= gt_4_0 gt_3_t) (= lt_4_0 0)  
 (= x_4_0 x_3_t)(= v_4_0 v_3_t) 
 (= state_x_3 x_3_t ) (= state_v_3 v_3_t )  
 (= next_a_4 (- (* (- 1 state_x_3 ) 10 ) (* state_v_3 3 ) ) ) 
  
 (= next_a_4 a_4_0 )  
 (= lt_4_t (+ lt_4_0 (* 1 time_4 ))) (= gt_4_t (+ gt_4_0 (* 1 time_4 ))) (= a_4_t (+ a_4_0 (* 0 time_4 ))) 
 (= [gt_4_t lt_4_t x_4_t v_4_t a_4_t ] (integral 0. time_4 [gt_4_0 lt_4_0 x_4_0 v_4_0 a_4_0 ] flow_1))  
 (<= lt_4_t 0.051) (<= lt_4_0 0.051) (= mode_5 1)  
 (= mode_5 1) (<= lt_4_t 0.051) (= gt_5_0 gt_4_t) (= lt_5_0 0)  
 (= x_5_0 x_4_t)(= v_5_0 v_4_t) 
 (= state_x_4 x_4_t ) (= state_v_4 v_4_t )  
 (= next_a_5 (- (* (- 1 state_x_4 ) 10 ) (* state_v_4 3 ) ) ) 
  
 (= next_a_5 a_5_0 )  
 (= lt_5_t (+ lt_5_0 (* 1 time_5 ))) (= gt_5_t (+ gt_5_0 (* 1 time_5 ))) (= a_5_t (+ a_5_0 (* 0 time_5 ))) 
 (= [gt_5_t lt_5_t x_5_t v_5_t a_5_t ] (integral 0. time_5 [gt_5_0 lt_5_0 x_5_0 v_5_0 a_5_0 ] flow_1))  
 (<= lt_5_t 0.051) (<= lt_5_0 0.051) (= mode_6 1)  
 (= mode_6 1) (<= lt_5_t 0.051) (= gt_6_0 gt_5_t) (= lt_6_0 0)  
 (= x_6_0 x_5_t)(= v_6_0 v_5_t) 
 (= state_x_5 x_5_t ) (= state_v_5 v_5_t )  
 (= next_a_6 (- (* (- 1 state_x_5 ) 10 ) (* state_v_5 3 ) ) ) 
  
 (= next_a_6 a_6_0 )  
 (= lt_6_t (+ lt_6_0 (* 1 time_6 ))) (= gt_6_t (+ gt_6_0 (* 1 time_6 ))) (= a_6_t (+ a_6_0 (* 0 time_6 ))) 
 (= [gt_6_t lt_6_t x_6_t v_6_t a_6_t ] (integral 0. time_6 [gt_6_0 lt_6_0 x_6_0 v_6_0 a_6_0 ] flow_1))  
 (<= lt_6_t 0.051) (<= lt_6_0 0.051) (= mode_7 1)  
 (= mode_7 1) (<= lt_6_t 0.051) (= gt_7_0 gt_6_t) (= lt_7_0 0)  
 (= x_7_0 x_6_t)(= v_7_0 v_6_t) 
 (= state_x_6 x_6_t ) (= state_v_6 v_6_t )  
 (= next_a_7 (- (* (- 1 state_x_6 ) 10 ) (* state_v_6 3 ) ) ) 
  
 (= next_a_7 a_7_0 )  
 (= lt_7_t (+ lt_7_0 (* 1 time_7 ))) (= gt_7_t (+ gt_7_0 (* 1 time_7 ))) (= a_7_t (+ a_7_0 (* 0 time_7 ))) 
 (= [gt_7_t lt_7_t x_7_t v_7_t a_7_t ] (integral 0. time_7 [gt_7_0 lt_7_0 x_7_0 v_7_0 a_7_0 ] flow_1))  
 (<= lt_7_t 0.051) (<= lt_7_0 0.051) (= mode_8 1)  
 (= mode_8 1) (<= lt_7_t 0.051) (= gt_8_0 gt_7_t) (= lt_8_0 0)  
 (= x_8_0 x_7_t)(= v_8_0 v_7_t) 
 (= state_x_7 x_7_t ) (= state_v_7 v_7_t )  
 (= next_a_8 (- (* (- 1 state_x_7 ) 10 ) (* state_v_7 3 ) ) ) 
  
 (= next_a_8 a_8_0 )  
 (= lt_8_t (+ lt_8_0 (* 1 time_8 ))) (= gt_8_t (+ gt_8_0 (* 1 time_8 ))) (= a_8_t (+ a_8_0 (* 0 time_8 ))) 
 (= [gt_8_t lt_8_t x_8_t v_8_t a_8_t ] (integral 0. time_8 [gt_8_0 lt_8_0 x_8_0 v_8_0 a_8_0 ] flow_1))  
 (<= lt_8_t 0.051) (<= lt_8_0 0.051) (= mode_9 1)  
 (= mode_9 1) (<= lt_8_t 0.051) (= gt_9_0 gt_8_t) (= lt_9_0 0)  
 (= x_9_0 x_8_t)(= v_9_0 v_8_t) 
 (= state_x_8 x_8_t ) (= state_v_8 v_8_t )  
 (= next_a_9 (- (* (- 1 state_x_8 ) 10 ) (* state_v_8 3 ) ) ) 
  
 (= next_a_9 a_9_0 )  
 (= lt_9_t (+ lt_9_0 (* 1 time_9 ))) (= gt_9_t (+ gt_9_0 (* 1 time_9 ))) (= a_9_t (+ a_9_0 (* 0 time_9 ))) 
 (= [gt_9_t lt_9_t x_9_t v_9_t a_9_t ] (integral 0. time_9 [gt_9_0 lt_9_0 x_9_0 v_9_0 a_9_0 ] flow_1))  
 (<= lt_9_t 0.051) (<= lt_9_0 0.051) (= mode_10 1)  
 (= mode_10 1) (<= lt_9_t 0.051) (= gt_10_0 gt_9_t) (= lt_10_0 0)  
 (= x_10_0 x_9_t)(= v_10_0 v_9_t) 
 (= state_x_9 x_9_t ) (= state_v_9 v_9_t )  
 (= next_a_10 (- (* (- 1 state_x_9 ) 10 ) (* state_v_9 3 ) ) ) 
  
 (= next_a_10 a_10_0 )  
 (= lt_10_t (+ lt_10_0 (* 1 time_10 ))) (= gt_10_t (+ gt_10_0 (* 1 time_10 ))) (= a_10_t (+ a_10_0 (* 0 time_10 ))) 
 (= [gt_10_t lt_10_t x_10_t v_10_t a_10_t ] (integral 0. time_10 [gt_10_0 lt_10_0 x_10_0 v_10_0 a_10_0 ] flow_1))  
 (<= lt_10_t 0.051) (<= lt_10_0 0.051) (= mode_11 1)  
 (= mode_11 1) (<= lt_10_t 0.051) (= gt_11_0 gt_10_t) (= lt_11_0 0)  
 (= x_11_0 x_10_t)(= v_11_0 v_10_t) 
 (= state_x_10 x_10_t ) (= state_v_10 v_10_t )  
 (= next_a_11 (- (* (- 1 state_x_10 ) 10 ) (* state_v_10 3 ) ) ) 
  
 (= next_a_11 a_11_0 )  
 (= lt_11_t (+ lt_11_0 (* 1 time_11 ))) (= gt_11_t (+ gt_11_0 (* 1 time_11 ))) (= a_11_t (+ a_11_0 (* 0 time_11 ))) 
 (= [gt_11_t lt_11_t x_11_t v_11_t a_11_t ] (integral 0. time_11 [gt_11_0 lt_11_0 x_11_0 v_11_0 a_11_0 ] flow_1))  
 (<= lt_11_t 0.051) (<= lt_11_0 0.051) (= mode_12 1)  
 (= mode_12 1) (<= lt_11_t 0.051) (= gt_12_0 gt_11_t) (= lt_12_0 0)  
 (= x_12_0 x_11_t)(= v_12_0 v_11_t) 
 (= state_x_11 x_11_t ) (= state_v_11 v_11_t )  
 (= next_a_12 (- (* (- 1 state_x_11 ) 10 ) (* state_v_11 3 ) ) ) 
  
 (= next_a_12 a_12_0 )  
 (= lt_12_t (+ lt_12_0 (* 1 time_12 ))) (= gt_12_t (+ gt_12_0 (* 1 time_12 ))) (= a_12_t (+ a_12_0 (* 0 time_12 ))) 
 (= [gt_12_t lt_12_t x_12_t v_12_t a_12_t ] (integral 0. time_12 [gt_12_0 lt_12_0 x_12_0 v_12_0 a_12_0 ] flow_1))  
 (<= lt_12_t 0.051) (<= lt_12_0 0.051) (= mode_13 1)  
 (= mode_13 1) (<= lt_12_t 0.051) (= gt_13_0 gt_12_t) (= lt_13_0 0)  
 (= x_13_0 x_12_t)(= v_13_0 v_12_t) 
 (= state_x_12 x_12_t ) (= state_v_12 v_12_t )  
 (= next_a_13 (- (* (- 1 state_x_12 ) 10 ) (* state_v_12 3 ) ) ) 
  
 (= next_a_13 a_13_0 )  
 (= lt_13_t (+ lt_13_0 (* 1 time_13 ))) (= gt_13_t (+ gt_13_0 (* 1 time_13 ))) (= a_13_t (+ a_13_0 (* 0 time_13 ))) 
 (= [gt_13_t lt_13_t x_13_t v_13_t a_13_t ] (integral 0. time_13 [gt_13_0 lt_13_0 x_13_0 v_13_0 a_13_0 ] flow_1))  
 (<= lt_13_t 0.051) (<= lt_13_0 0.051) (= mode_14 1)  
 (= mode_14 1) (<= lt_13_t 0.051) (= gt_14_0 gt_13_t) (= lt_14_0 0)  
 (= x_14_0 x_13_t)(= v_14_0 v_13_t) 
 (= state_x_13 x_13_t ) (= state_v_13 v_13_t )  
 (= next_a_14 (- (* (- 1 state_x_13 ) 10 ) (* state_v_13 3 ) ) ) 
  
 (= next_a_14 a_14_0 )  
 (= lt_14_t (+ lt_14_0 (* 1 time_14 ))) (= gt_14_t (+ gt_14_0 (* 1 time_14 ))) (= a_14_t (+ a_14_0 (* 0 time_14 ))) 
 (= [gt_14_t lt_14_t x_14_t v_14_t a_14_t ] (integral 0. time_14 [gt_14_0 lt_14_0 x_14_0 v_14_0 a_14_0 ] flow_1))  
 (<= lt_14_t 0.051) (<= lt_14_0 0.051) (= mode_15 1)  
 (= mode_15 1) (<= lt_14_t 0.051) (= gt_15_0 gt_14_t) (= lt_15_0 0)  
 (= x_15_0 x_14_t)(= v_15_0 v_14_t) 
 (= state_x_14 x_14_t ) (= state_v_14 v_14_t )  
 (= next_a_15 (- (* (- 1 state_x_14 ) 10 ) (* state_v_14 3 ) ) ) 
  
 (= next_a_15 a_15_0 )  
 (= lt_15_t (+ lt_15_0 (* 1 time_15 ))) (= gt_15_t (+ gt_15_0 (* 1 time_15 ))) (= a_15_t (+ a_15_0 (* 0 0.05 ))) 
 (= [gt_15_t lt_15_t x_15_t v_15_t a_15_t ] (integral 0. time_15 [gt_15_0 lt_15_0 x_15_0 v_15_0 a_15_0 ] flow_1))  
 (forall_t 1 [0 time_15] (<= lt_15_t 0.051))   
 (<= lt_15_t 0.051) (<= lt_15_0 0.051) (= mode_15 1)  
 (> gt_15_t 1  ) ))
 (check-sat)
(exit)